CMD:
./solvers/bin/cadical --plain --no-reduce -t 1600 ./data/cnfs//vis_arrays_am2910_p1/vis_arrays_am2910_p1.80.cnf

c --- [ banner ] -------------------------------------------------------------
c 
c CaDiCaL SAT Solver
c Copyright (c) 2016-2024
c A. Biere, M. Fleury, N. Froleyks, K. Fazekas, F. Pollitt, T. Faller
c JKU Linz, University of Freiburg, TU Wien
c 
c Version 2.1.3 5296d3d2a9bf48c154ab2acb5e44625776d821bf
c g++ (Gentoo 12.3.1_p20230526 p2) 12.3.1 20230526 -Wall -Wextra -O3 -DNDEBUG
c Sat Aug 9 07:26:21 PDT 2025 Linux cedar2.int.cedar.computecanada.ca 5.14.0-362.24.2.el9_3.x86_64 x86_64
c 
c --- [ limit ] --------------------------------------------------------------
c 
c setting time limit to 1600 seconds real time (due to '-t 1600')
c 
c --- [ parsing input ] ------------------------------------------------------
c 
c reading DIMACS file from './data/cnfs//vis_arrays_am2910_p1/vis_arrays_am2910_p1.80.cnf'
c opening file to read './data/cnfs//vis_arrays_am2910_p1/vis_arrays_am2910_p1.80.cnf'
c found 'p cnf 82340 232164' header
c parsed 232164 clauses in 0.05 seconds process time
c 
c --- [ options ] ------------------------------------------------------------
c 
c   --compact=false                (different from default 'true')
c   --decompose=false              (different from default 'true')
c   --deduplicate=false            (different from default 'true')
c   --elim=false                   (different from default 'true')
c   --probe=false                  (different from default 'true')
c   --reduce=false                 (different from default 'true')
c   --subsume=false                (different from default 'true')
c   --ternary=false                (different from default 'true')
c   --transred=false               (different from default 'true')
c   --vivify=false                 (different from default 'true')
c 
c --- [ solving ] ------------------------------------------------------------
c 
c time measured in process time since initialization
c 
c  seconds  reductions  redundant  irredundant
c         MB    restarts       trail       variables
c          level   conflicts       glue         remaining
c 
c *  0.05 40  0 0   0    0    0  0% 0 230944 78774 96%
c {  0.07 41  0 0   0    0    0  0% 0 230944 78774 96%
c i  0.07 41 96 0   0   12    1  6% 0 230944 78511 95%
c i  0.07 41 125 0   0   15    3  6% 1 230944 78509 95%
c i  0.07 41 124 0   0   19    5  6% 1 230944 78414 95%
c i  0.10 41 2179 0   0  542  454 51% 1 230944 78189 95%
c i  0.10 41 2171 0   0  544  454 51% 1 230944 78156 95%
c i  0.10 41 2167 0   0  545  454 51% 1 230944 78130 95%
c }  0.10 41 2163 0   0  547  454 50% 1 230944 78080 95%
c 0  0.10 41 2163 0   0  547  454 50% 1 230944 78080 95%
c 
c --- [ result ] -------------------------------------------------------------
c 
s UNSATISFIABLE
c 
c --- [ run-time profiling ] -------------------------------------------------
c 
c process time taken by individual solving procedures
c (percentage relative to process time for solving)
c 
c         0.05   99.79% search
c         0.05   83.64% parse
c         0.04   65.67% unstable
c         0.02   34.10% lucky
c         0.00    0.00% simplify
c   =================================
c         0.06   54.20% solve
c 
c last line shows process time for solving
c (percentage relative to total process time)
c 
c --- [ statistics ] ---------------------------------------------------------
c 
c chronological:               342        62.52 %  of conflicts
c conflicts:                   547      9937.50    per second
c decisions:                  4926     89492.04    per second
c fixed:                      4234         5.14 %  of all variables
c learned:                     486        88.85 %  per conflict
c learned_lits:               2105       100.00 %  learned literals
c minimized:                     0         0.00 %  learned literals
c shrunken:                    208         9.88 %  learned literals
c minishrunken:                 74         3.52 %  learned literals
c otfs:                        127        23.22 %  of conflict
c propagations:             197980         3.60 M  per second
c subsumed:                     24         0.01 %  of all clauses
c strengthened:                127         0.05 %  of all clauses
c 
c seconds are measured in process time for solving
c 
c --- [ resources ] ----------------------------------------------------------
c 
c total process time since initialization:         0.10    seconds
c total real time since initialization:            0.11    seconds
c maximum resident set size of process:           40.20    MB
c 
c --- [ shutting down ] ------------------------------------------------------
c 
c exit 20
